# Solution for model MainOptimizationProblem
# Objective value = 6.8357233428917825e+03
x0 0
x1 0
x2 1
x3 0
x4 0
x5 0
x6 0
x7 0
x8 0
x9 0
x10 0
x11 0
x12 0
x13 0
x14 0
x15 1
x16 0
x17 0
x18 1
x19 0
s0 0
s1 0
s2 0
s3 0
s4 29
s5 0
s6 29
s7 40
s8 43
s9 43
s10 72
s11 65
s12 120
s13 90
s14 66
s15 73
s16 91
s17 128
s18 109
s19 143
z1 1
z2 0
z3 0
z4 0
z5 0
z6 0
z7 0
z8 0
z9 0
z10 0
z11 0
z12 0
z13 0
z14 0
z15 0
z16 0
z17 0
z18 0
z19 0
z20 0
